n_res = 4;
rc = [ 41, 23, 32, 32 ];
n_tasks = 30;
d = [ 1, 3, 5, 4, 2, 5, 10, 8, 4, 9, 6, 4, 9, 2, 3, 8, 5, 5, 9, 7, 6, 10, 9, 8, 1, 9, 3, 9, 2, 7 ];
rr = [| 10, 8, 6, 10, 10, 4, 8, 8, 1, 10, 7, 0, 6, 5, 4, 5, 0, 7, 4, 6, 7, 0, 3, 1, 9, 1, 9, 10, 4, 6
      | 3, 6, 0, 0, 9, 2, 7, 10, 3, 0, 0, 1, 9, 7, 0, 0, 9, 0, 0, 2, 0, 10, 0, 3, 6, 0, 2, 3, 6, 4
      | 7, 8, 3, 0, 9, 6, 3, 4, 5, 0, 0, 6, 0, 1, 0, 8, 6, 10, 10, 9, 6, 0, 2, 7, 0, 1, 7, 1, 0, 0
      | 10, 2, 0, 8, 10, 2, 0, 4, 0, 2, 0, 8, 0, 2, 2, 3, 6, 8, 4, 1, 1, 6, 9, 9, 0, 9, 9, 9, 5, 1 |];
suc = [ { 2 }, 
        { 3 }, 
        { 4 }, 
        { 5 }, 
        { 6 }, 
        { 7 }, 
        { 8 }, 
        { 9 }, 
        { 10 }, 
        { 11 }, 
        { 12 }, 
        { 13 }, 
        { 14 }, 
        { 15 }, 
        { 16 }, 
        { 17 }, 
        { 18 }, 
        { 19 }, 
        { 20 }, 
        { 21 }, 
        { 22 }, 
        { 23 }, 
        { 24 }, 
        { 25 }, 
        { 26 }, 
        { 27 }, 
        { 28 }, 
        { 29 }, 
        { 30 }, 
        {  }]; 
